Features/ForMiniZinc/benchmark_puzzles/benchmarks4x4/65/puzzle14.dzn
S = 4;
start = [|0,0,0,13,0,0,0,0,0,1,0,5,0,0,0,7|
16,7,0,0,0,10,0,12,0,0,0,15,0,0,0,0|
1,0,0,0,0,0,11,7,0,0,3,0,0,0,0,0|
0,0,2,8,0,0,5,0,0,0,0,0,0,0,15,0|
0,12,14,1,0,0,15,0,9,6,11,0,0,0,0,0|
5,13,0,0,3,0,10,0,0,8,1,0,15,14,0,0|
15,0,0,16,0,0,0,5,0,2,4,0,0,0,0,13|
0,11,0,0,0,12,0,2,0,0,15,0,0,0,9,6|
2,0,16,12,10,0,0,0,13,0,0,0,7,5,4,1|
0,9,0,11,0,0,0,0,16,0,0,0,0,0,0,0|
10,8,0,0,9,14,0,3,0,0,2,0,0,15,0,11|
0,0,0,0,7,5,0,15,0,12,8,11,0,13,0,0|
13,0,12,0,15,0,0,0,0,0,0,0,0,0,0,16|
0,2,4,0,0,0,3,10,0,5,0,0,0,0,0,0|
0,0,10,0,0,0,0,4,15,0,0,14,13,0,3,0|
0,16,0,3,5,0,0,0,0,11,0,0,0,0,12,15|];